benchmark/results/graph__10-1000-0.10-03_4/graph__10-1000-0.10-03_4_Quinton_Benders_sub.lp
\ This file has been generated by DOcplex
\ ENCODING=ISO-8859-1
\Problem name: Quinton Benders_dual_sub

Minimize
 obj: 0.000827814570 pi_nr_a0 + 0.000931098696 pi_nr_a1
      + 0.001128668172 pi_nr_a2 + 0.001408450704 pi_nr_a3
      + 0.001490312966 pi_nr_a4 + 0.000895255148 pi_nr_a5
      + 0.000867302689 pi_nr_a6 + 0.001555209953 pi_nr_a7
      + 0.001869158879 pi_nr_a8 + 0.001342281879 pi_nr_a9 + 2 pi_p_a1_a0
      + pi_p_a1_a2 + pi_p_a2_a7 + pi_p_a2_a8 + pi_p_a9_a6 + pi_p_a1_a1
      + pi_p_a4_a8 + pi_p_a4_a7 + 2503 pi_d_a0_a1_proc_2
      + 3755 pi_d_a0_a1_proc_0 + 2 pi_d_a1_a0_proc_2 + 1254 pi_d_a1_a0_proc_0
      - pi_d_a0_a2_proc_2 + 2503 pi_d_a0_a2_proc_0 + 2 pi_d_a2_a0_proc_2
      + 2506 pi_d_a2_a0_proc_0 - pi_d_a0_a3_proc_2 + 2503 pi_d_a0_a3_proc_0
      + 2 pi_d_a3_a0_proc_2 + 2506 pi_d_a3_a0_proc_0 + 428 pi_d_a0_a4_proc_0
      + 2077 pi_d_a4_a0_proc_0 + 2505 pi_d_a5_a0_proc_2 + 2505 pi_d_a6_a0_proc_0
      - pi_d_a0_a7_proc_2 - pi_d_a0_a7_proc_0 + 2506 pi_d_a7_a0_proc_2
      + 2506 pi_d_a7_a0_proc_0 + 368 pi_d_a0_a8_proc_0 + 4641 pi_d_a8_a0_proc_0
      - pi_d_a0_a9_proc_2 - pi_d_a0_a9_proc_0 + 2506 pi_d_a9_a0_proc_2
      + 2506 pi_d_a9_a0_proc_0 + 2504 pi_d_a1_a2_proc_2 + 3756 pi_d_a1_a2_proc_0
      + 2504 pi_d_a1_a2_proc_1 + pi_d_a2_a1_proc_2 + 1253 pi_d_a2_a1_proc_0
      + pi_d_a2_a1_proc_1 + pi_d_a1_a3_proc_2 + 1253 pi_d_a1_a3_proc_0
      + 2504 pi_d_a3_a1_proc_2 + 3756 pi_d_a3_a1_proc_0 + 2505 pi_d_a4_a1_proc_0
      + 2505 pi_d_a1_a5_proc_2 + pi_d_a1_a5_proc_1 + 2504 pi_d_a5_a1_proc_2
      + pi_d_a1_a6_proc_0 + 2504 pi_d_a6_a1_proc_0 + 3756 pi_d_a1_a7_proc_2
      + 2504 pi_d_a1_a7_proc_0 + 2504 pi_d_a1_a7_proc_1 + 1253 pi_d_a7_a1_proc_2
      + pi_d_a7_a1_proc_0 + pi_d_a7_a1_proc_1 + 2505 pi_d_a1_a8_proc_0
      + pi_d_a1_a8_proc_1 + 2504 pi_d_a8_a1_proc_0 + 1253 pi_d_a1_a9_proc_2
      + pi_d_a1_a9_proc_0 + 3756 pi_d_a9_a1_proc_2 + 2504 pi_d_a9_a1_proc_0
      + pi_d_a2_a3_proc_2 + 2505 pi_d_a2_a3_proc_0 + 2504 pi_d_a3_a2_proc_0
      + 2504 pi_d_a2_a4_proc_0 + pi_d_a4_a2_proc_0 + pi_d_a2_a5_proc_2
      + pi_d_a2_a5_proc_1 + 2504 pi_d_a5_a2_proc_2 + 2504 pi_d_a5_a2_proc_1
      + pi_d_a2_a6_proc_0 + 2504 pi_d_a6_a2_proc_0 + 2505 pi_d_a2_a7_proc_2
      + 2505 pi_d_a2_a7_proc_0 + 3757 pi_d_a2_a7_proc_1 + 1252 pi_d_a7_a2_proc_1
      + 3757 pi_d_a2_a8_proc_0 + 2505 pi_d_a2_a8_proc_1 + 1252 pi_d_a8_a2_proc_0
      + 2505 pi_d_a2_a9_proc_2 + 2505 pi_d_a2_a9_proc_0 + 2503 pi_d_a3_a4_proc_0
      + 2 pi_d_a4_a3_proc_0 + pi_d_a3_a5_proc_2 + 2504 pi_d_a5_a3_proc_2
      + pi_d_a3_a6_proc_0 + 2504 pi_d_a6_a3_proc_0 + 2504 pi_d_a3_a7_proc_2
      + 2504 pi_d_a3_a7_proc_0 + pi_d_a7_a3_proc_2 + pi_d_a7_a3_proc_0
      + 5008 pi_d_a3_a8_proc_0 + pi_d_a8_a3_proc_0 + 411 pi_d_a3_a9_proc_2
      + 411 pi_d_a3_a9_proc_0 + 2094 pi_d_a9_a3_proc_2 + 2094 pi_d_a9_a3_proc_0
      + 2 pi_d_a4_a6_proc_0 - pi_d_a6_a4_proc_0 + pi_d_a4_a7_proc_0
      + 2505 pi_d_a4_a8_proc_0 + pi_d_a4_a9_proc_0 + 1253 pi_d_a5_a7_proc_2
      + pi_d_a5_a7_proc_1 + 3756 pi_d_a7_a5_proc_2 + 2504 pi_d_a7_a5_proc_1
      + pi_d_a8_a5_proc_1 + 5009 pi_d_a9_a5_proc_2 + pi_d_a7_a6_proc_0
      + 2504 pi_d_a6_a8_proc_0 + pi_d_a8_a6_proc_0 + pi_d_a9_a6_proc_0
      + pi_d_a7_a8_proc_0 + pi_d_a7_a8_proc_1 + 2504 pi_d_a8_a7_proc_0
      + 2504 pi_d_a8_a7_proc_1 + 2504 pi_d_a7_a9_proc_2 + 2505 pi_d_a9_a7_proc_2
      + pi_d_a9_a7_proc_0 + 2504 pi_d_a8_a9_proc_0 + pi_d_a9_a8_proc_0
      + pi_y2_a0_proc_2 + pi_y2_a1_proc_1 + pi_y2_a2_proc_2 + pi_y2_a3_proc_2
      + pi_y2_a4_proc_0 + pi_y2_a5_proc_1 + pi_y2_a6_proc_0 + pi_y2_a7_proc_0
      + pi_y2_a8_proc_1 + pi_y2_a9_proc_0
Subject To
 c1: pi_nr_a0 + pi_nr_a1 + pi_nr_a2 + pi_nr_a3 + pi_nr_a4 + pi_nr_a5 + pi_nr_a6
     + pi_nr_a7 + pi_nr_a8 + pi_nr_a9 - pi_y1_a0 - pi_y1_a1 - pi_y1_a2
     - pi_y1_a3 - pi_y1_a4 - pi_y1_a5 - pi_y1_a6 - pi_y1_a7 - pi_y1_a8
     - pi_y1_a9 >= 1
 c2: - pi_p_a1_a0 + pi_p_a0_a5 + pi_d_a0_a1_proc_2 + pi_d_a0_a1_proc_0
     - pi_d_a1_a0_proc_2 - pi_d_a1_a0_proc_0 + pi_d_a0_a2_proc_2
     + pi_d_a0_a2_proc_0 - pi_d_a2_a0_proc_2 - pi_d_a2_a0_proc_0
     + pi_d_a0_a3_proc_2 + pi_d_a0_a3_proc_0 - pi_d_a3_a0_proc_2
     - pi_d_a3_a0_proc_0 + pi_d_a0_a4_proc_0 - pi_d_a4_a0_proc_0
     + pi_d_a0_a5_proc_2 - pi_d_a5_a0_proc_2 + pi_d_a0_a6_proc_0
     - pi_d_a6_a0_proc_0 + pi_d_a0_a7_proc_2 + pi_d_a0_a7_proc_0
     - pi_d_a7_a0_proc_2 - pi_d_a7_a0_proc_0 + pi_d_a0_a8_proc_0
     - pi_d_a8_a0_proc_0 + pi_d_a0_a9_proc_2 + pi_d_a0_a9_proc_0
     - pi_d_a9_a0_proc_2 - pi_d_a9_a0_proc_0 >= 0
 c3: 975 pi_p_a0_a5 + 975 pi_d_a0_a1_proc_0 + 975 pi_d_a0_a2_proc_0
     + 975 pi_d_a0_a3_proc_0 + 975 pi_d_a0_a4_proc_0 + 975 pi_d_a0_a6_proc_0
     + 975 pi_d_a0_a7_proc_0 + 975 pi_d_a0_a8_proc_0 + 975 pi_d_a0_a9_proc_0
     + pi_y1_a0 + pi_y2_a0_proc_0 >= 0
 c4: 1208 pi_p_a0_a5 + 1208 pi_d_a0_a1_proc_2 + 1208 pi_d_a0_a2_proc_2
     + 1208 pi_d_a0_a3_proc_2 + 1208 pi_d_a0_a5_proc_2 + 1208 pi_d_a0_a7_proc_2
     + 1208 pi_d_a0_a9_proc_2 + pi_y1_a0 + pi_y2_a0_proc_2 >= 0
 c5: pi_p_a1_a0 + pi_p_a1_a2 - pi_p_a8_a1 - pi_d_a0_a1_proc_2
     - pi_d_a0_a1_proc_0 + pi_d_a1_a0_proc_2 + pi_d_a1_a0_proc_0
     + pi_d_a1_a2_proc_2 + pi_d_a1_a2_proc_0 + pi_d_a1_a2_proc_1
     - pi_d_a2_a1_proc_2 - pi_d_a2_a1_proc_0 - pi_d_a2_a1_proc_1
     + pi_d_a1_a3_proc_2 + pi_d_a1_a3_proc_0 - pi_d_a3_a1_proc_2
     - pi_d_a3_a1_proc_0 + pi_d_a1_a4_proc_0 - pi_d_a4_a1_proc_0
     + pi_d_a1_a5_proc_2 + pi_d_a1_a5_proc_1 - pi_d_a5_a1_proc_2
     - pi_d_a5_a1_proc_1 + pi_d_a1_a6_proc_0 - pi_d_a6_a1_proc_0
     + pi_d_a1_a7_proc_2 + pi_d_a1_a7_proc_0 + pi_d_a1_a7_proc_1
     - pi_d_a7_a1_proc_2 - pi_d_a7_a1_proc_0 - pi_d_a7_a1_proc_1
     + pi_d_a1_a8_proc_0 + pi_d_a1_a8_proc_1 - pi_d_a8_a1_proc_0
     - pi_d_a8_a1_proc_1 + pi_d_a1_a9_proc_2 + pi_d_a1_a9_proc_0
     - pi_d_a9_a1_proc_2 - pi_d_a9_a1_proc_0 >= 0
 c6: 1015 pi_p_a1_a0 + 1015 pi_p_a1_a2 + 1015 pi_p_a1_a1
     + 1015 pi_d_a1_a0_proc_0 + 1015 pi_d_a1_a2_proc_0 + 1015 pi_d_a1_a3_proc_0
     + 1015 pi_d_a1_a4_proc_0 + 1015 pi_d_a1_a6_proc_0 + 1015 pi_d_a1_a7_proc_0
     + 1015 pi_d_a1_a8_proc_0 + 1015 pi_d_a1_a9_proc_0 + pi_y1_a1
     + pi_y2_a1_proc_0 >= 0
 c7: 1074 pi_p_a1_a0 + 1074 pi_p_a1_a2 + 1074 pi_p_a1_a1
     + 1074 pi_d_a1_a2_proc_1 + 1074 pi_d_a1_a5_proc_1 + 1074 pi_d_a1_a7_proc_1
     + 1074 pi_d_a1_a8_proc_1 + pi_y1_a1 + pi_y2_a1_proc_1 >= 0
 c8: 735 pi_p_a1_a0 + 735 pi_p_a1_a2 + 735 pi_p_a1_a1 + 735 pi_d_a1_a0_proc_2
     + 735 pi_d_a1_a2_proc_2 + 735 pi_d_a1_a3_proc_2 + 735 pi_d_a1_a5_proc_2
     + 735 pi_d_a1_a7_proc_2 + 735 pi_d_a1_a9_proc_2 + pi_y1_a1
     + pi_y2_a1_proc_2 >= 0
 c9: - pi_p_a1_a2 - pi_p_a3_a2 + pi_p_a2_a4 + pi_p_a2_a7 + pi_p_a2_a8
     - pi_d_a0_a2_proc_2 - pi_d_a0_a2_proc_0 + pi_d_a2_a0_proc_2
     + pi_d_a2_a0_proc_0 - pi_d_a1_a2_proc_2 - pi_d_a1_a2_proc_0
     - pi_d_a1_a2_proc_1 + pi_d_a2_a1_proc_2 + pi_d_a2_a1_proc_0
     + pi_d_a2_a1_proc_1 + pi_d_a2_a3_proc_2 + pi_d_a2_a3_proc_0
     - pi_d_a3_a2_proc_2 - pi_d_a3_a2_proc_0 + pi_d_a2_a4_proc_0
     - pi_d_a4_a2_proc_0 + pi_d_a2_a5_proc_2 + pi_d_a2_a5_proc_1
     - pi_d_a5_a2_proc_2 - pi_d_a5_a2_proc_1 + pi_d_a2_a6_proc_0
     - pi_d_a6_a2_proc_0 + pi_d_a2_a7_proc_2 + pi_d_a2_a7_proc_0
     + pi_d_a2_a7_proc_1 - pi_d_a7_a2_proc_2 - pi_d_a7_a2_proc_0
     - pi_d_a7_a2_proc_1 + pi_d_a2_a8_proc_0 + pi_d_a2_a8_proc_1
     - pi_d_a8_a2_proc_0 - pi_d_a8_a2_proc_1 + pi_d_a2_a9_proc_2
     + pi_d_a2_a9_proc_0 - pi_d_a9_a2_proc_2 - pi_d_a9_a2_proc_0 >= 0
 c10: 761 pi_p_a2_a4 + 761 pi_p_a2_a7 + 761 pi_p_a2_a8 + 761 pi_d_a2_a0_proc_0
      + 761 pi_d_a2_a1_proc_0 + 761 pi_d_a2_a3_proc_0 + 761 pi_d_a2_a4_proc_0
      + 761 pi_d_a2_a6_proc_0 + 761 pi_d_a2_a7_proc_0 + 761 pi_d_a2_a8_proc_0
      + 761 pi_d_a2_a9_proc_0 + pi_y1_a2 + pi_y2_a2_proc_0 >= 0
 c11: 1202 pi_p_a2_a4 + 1202 pi_p_a2_a7 + 1202 pi_p_a2_a8
      + 1202 pi_d_a2_a1_proc_1 + 1202 pi_d_a2_a5_proc_1 + 1202 pi_d_a2_a7_proc_1
      + 1202 pi_d_a2_a8_proc_1 + pi_y1_a2 + pi_y2_a2_proc_1 >= 0
 c12: 886 pi_p_a2_a4 + 886 pi_p_a2_a7 + 886 pi_p_a2_a8 + 886 pi_d_a2_a0_proc_2
      + 886 pi_d_a2_a1_proc_2 + 886 pi_d_a2_a3_proc_2 + 886 pi_d_a2_a5_proc_2
      + 886 pi_d_a2_a7_proc_2 + 886 pi_d_a2_a9_proc_2 + pi_y1_a2
      + pi_y2_a2_proc_2 >= 0
 c13: pi_p_a3_a2 - pi_p_a5_a3 - pi_d_a0_a3_proc_2 - pi_d_a0_a3_proc_0
      + pi_d_a3_a0_proc_2 + pi_d_a3_a0_proc_0 - pi_d_a1_a3_proc_2
      - pi_d_a1_a3_proc_0 + pi_d_a3_a1_proc_2 + pi_d_a3_a1_proc_0
      - pi_d_a2_a3_proc_2 - pi_d_a2_a3_proc_0 + pi_d_a3_a2_proc_2
      + pi_d_a3_a2_proc_0 + pi_d_a3_a4_proc_0 - pi_d_a4_a3_proc_0
      + pi_d_a3_a5_proc_2 - pi_d_a5_a3_proc_2 + pi_d_a3_a6_proc_0
      - pi_d_a6_a3_proc_0 + pi_d_a3_a7_proc_2 + pi_d_a3_a7_proc_0
      - pi_d_a7_a3_proc_2 - pi_d_a7_a3_proc_0 + pi_d_a3_a8_proc_0
      - pi_d_a8_a3_proc_0 + pi_d_a3_a9_proc_2 + pi_d_a3_a9_proc_0
      - pi_d_a9_a3_proc_2 - pi_d_a9_a3_proc_0 >= 0
 c14: 1184 pi_p_a3_a2 + 1184 pi_d_a3_a0_proc_0 + 1184 pi_d_a3_a1_proc_0
      + 1184 pi_d_a3_a2_proc_0 + 1184 pi_d_a3_a4_proc_0 + 1184 pi_d_a3_a6_proc_0
      + 1184 pi_d_a3_a7_proc_0 + 1184 pi_d_a3_a8_proc_0 + 1184 pi_d_a3_a9_proc_0
      + pi_y1_a3 + pi_y2_a3_proc_0 >= 0
 c15: 710 pi_p_a3_a2 + 710 pi_d_a3_a0_proc_2 + 710 pi_d_a3_a1_proc_2
      + 710 pi_d_a3_a2_proc_2 + 710 pi_d_a3_a5_proc_2 + 710 pi_d_a3_a7_proc_2
      + 710 pi_d_a3_a9_proc_2 + pi_y1_a3 + pi_y2_a3_proc_2 >= 0
 c16: - pi_p_a2_a4 + pi_p_a4_a8 + pi_p_a4_a7 - pi_d_a0_a4_proc_0
      + pi_d_a4_a0_proc_0 - pi_d_a1_a4_proc_0 + pi_d_a4_a1_proc_0
      - pi_d_a2_a4_proc_0 + pi_d_a4_a2_proc_0 - pi_d_a3_a4_proc_0
      + pi_d_a4_a3_proc_0 + pi_d_a4_a6_proc_0 - pi_d_a6_a4_proc_0
      + pi_d_a4_a7_proc_0 - pi_d_a7_a4_proc_0 + pi_d_a4_a8_proc_0
      - pi_d_a8_a4_proc_0 + pi_d_a4_a9_proc_0 - pi_d_a9_a4_proc_0 >= 0
 c17: 671 pi_p_a4_a8 + 671 pi_p_a4_a7 + 671 pi_d_a4_a0_proc_0
      + 671 pi_d_a4_a1_proc_0 + 671 pi_d_a4_a2_proc_0 + 671 pi_d_a4_a3_proc_0
      + 671 pi_d_a4_a6_proc_0 + 671 pi_d_a4_a7_proc_0 + 671 pi_d_a4_a8_proc_0
      + 671 pi_d_a4_a9_proc_0 + pi_y1_a4 + pi_y2_a4_proc_0 >= 0
 c18: pi_p_a5_a3 - pi_p_a6_a5 - pi_p_a0_a5 - pi_d_a0_a5_proc_2
      + pi_d_a5_a0_proc_2 - pi_d_a1_a5_proc_2 - pi_d_a1_a5_proc_1
      + pi_d_a5_a1_proc_2 + pi_d_a5_a1_proc_1 - pi_d_a2_a5_proc_2
      - pi_d_a2_a5_proc_1 + pi_d_a5_a2_proc_2 + pi_d_a5_a2_proc_1
      - pi_d_a3_a5_proc_2 + pi_d_a5_a3_proc_2 + pi_d_a5_a7_proc_2
      + pi_d_a5_a7_proc_1 - pi_d_a7_a5_proc_2 - pi_d_a7_a5_proc_1
      + pi_d_a5_a8_proc_1 - pi_d_a8_a5_proc_1 + pi_d_a5_a9_proc_2
      - pi_d_a9_a5_proc_2 >= 0
 c19: 1117 pi_p_a5_a3 + 1117 pi_d_a5_a1_proc_1 + 1117 pi_d_a5_a2_proc_1
      + 1117 pi_d_a5_a7_proc_1 + 1117 pi_d_a5_a8_proc_1 + pi_y1_a5
      + pi_y2_a5_proc_1 >= 0
 c20: 897 pi_p_a5_a3 + 897 pi_d_a5_a0_proc_2 + 897 pi_d_a5_a1_proc_2
      + 897 pi_d_a5_a2_proc_2 + 897 pi_d_a5_a3_proc_2 + 897 pi_d_a5_a7_proc_2
      + 897 pi_d_a5_a9_proc_2 + pi_y1_a5 + pi_y2_a5_proc_2 >= 0
 c21: pi_p_a6_a5 - pi_p_a9_a6 + pi_p_a6_a8 - pi_d_a0_a6_proc_0
      + pi_d_a6_a0_proc_0 - pi_d_a1_a6_proc_0 + pi_d_a6_a1_proc_0
      - pi_d_a2_a6_proc_0 + pi_d_a6_a2_proc_0 - pi_d_a3_a6_proc_0
      + pi_d_a6_a3_proc_0 - pi_d_a4_a6_proc_0 + pi_d_a6_a4_proc_0
      + pi_d_a6_a7_proc_0 - pi_d_a7_a6_proc_0 + pi_d_a6_a8_proc_0
      - pi_d_a8_a6_proc_0 + pi_d_a6_a9_proc_0 - pi_d_a9_a6_proc_0 >= 0
 c22: 1153 pi_p_a6_a5 + 1153 pi_p_a6_a8 + 1153 pi_d_a6_a0_proc_0
      + 1153 pi_d_a6_a1_proc_0 + 1153 pi_d_a6_a2_proc_0 + 1153 pi_d_a6_a3_proc_0
      + 1153 pi_d_a6_a4_proc_0 + 1153 pi_d_a6_a7_proc_0 + 1153 pi_d_a6_a8_proc_0
      + 1153 pi_d_a6_a9_proc_0 + pi_y1_a6 + pi_y2_a6_proc_0 >= 0
 c23: - pi_p_a2_a7 + pi_p_a7_a9 - pi_p_a4_a7 - pi_d_a0_a7_proc_2
      - pi_d_a0_a7_proc_0 + pi_d_a7_a0_proc_2 + pi_d_a7_a0_proc_0
      - pi_d_a1_a7_proc_2 - pi_d_a1_a7_proc_0 - pi_d_a1_a7_proc_1
      + pi_d_a7_a1_proc_2 + pi_d_a7_a1_proc_0 + pi_d_a7_a1_proc_1
      - pi_d_a2_a7_proc_2 - pi_d_a2_a7_proc_0 - pi_d_a2_a7_proc_1
      + pi_d_a7_a2_proc_2 + pi_d_a7_a2_proc_0 + pi_d_a7_a2_proc_1
      - pi_d_a3_a7_proc_2 - pi_d_a3_a7_proc_0 + pi_d_a7_a3_proc_2
      + pi_d_a7_a3_proc_0 - pi_d_a4_a7_proc_0 + pi_d_a7_a4_proc_0
      - pi_d_a5_a7_proc_2 - pi_d_a5_a7_proc_1 + pi_d_a7_a5_proc_2
      + pi_d_a7_a5_proc_1 - pi_d_a6_a7_proc_0 + pi_d_a7_a6_proc_0
      + pi_d_a7_a8_proc_0 + pi_d_a7_a8_proc_1 - pi_d_a8_a7_proc_0
      - pi_d_a8_a7_proc_1 + pi_d_a7_a9_proc_2 + pi_d_a7_a9_proc_0
      - pi_d_a9_a7_proc_2 - pi_d_a9_a7_proc_0 >= 0
 c24: 643 pi_p_a7_a9 + 643 pi_d_a7_a0_proc_0 + 643 pi_d_a7_a1_proc_0
      + 643 pi_d_a7_a2_proc_0 + 643 pi_d_a7_a3_proc_0 + 643 pi_d_a7_a4_proc_0
      + 643 pi_d_a7_a6_proc_0 + 643 pi_d_a7_a8_proc_0 + 643 pi_d_a7_a9_proc_0
      + pi_y1_a7 + pi_y2_a7_proc_0 >= 0
 c25: 1252 pi_p_a7_a9 + 1252 pi_d_a7_a1_proc_1 + 1252 pi_d_a7_a2_proc_1
      + 1252 pi_d_a7_a5_proc_1 + 1252 pi_d_a7_a8_proc_1 + pi_y1_a7
      + pi_y2_a7_proc_1 >= 0
 c26: 1203 pi_p_a7_a9 + 1203 pi_d_a7_a0_proc_2 + 1203 pi_d_a7_a1_proc_2
      + 1203 pi_d_a7_a2_proc_2 + 1203 pi_d_a7_a3_proc_2 + 1203 pi_d_a7_a5_proc_2
      + 1203 pi_d_a7_a9_proc_2 + pi_y1_a7 + pi_y2_a7_proc_2 >= 0
 c27: - pi_p_a2_a8 + pi_p_a8_a1 - pi_p_a6_a8 - pi_p_a4_a8 + pi_p_a8_a9
      - pi_d_a0_a8_proc_0 + pi_d_a8_a0_proc_0 - pi_d_a1_a8_proc_0
      - pi_d_a1_a8_proc_1 + pi_d_a8_a1_proc_0 + pi_d_a8_a1_proc_1
      - pi_d_a2_a8_proc_0 - pi_d_a2_a8_proc_1 + pi_d_a8_a2_proc_0
      + pi_d_a8_a2_proc_1 - pi_d_a3_a8_proc_0 + pi_d_a8_a3_proc_0
      - pi_d_a4_a8_proc_0 + pi_d_a8_a4_proc_0 - pi_d_a5_a8_proc_1
      + pi_d_a8_a5_proc_1 - pi_d_a6_a8_proc_0 + pi_d_a8_a6_proc_0
      - pi_d_a7_a8_proc_0 - pi_d_a7_a8_proc_1 + pi_d_a8_a7_proc_0
      + pi_d_a8_a7_proc_1 + pi_d_a8_a9_proc_0 - pi_d_a9_a8_proc_0 >= 0
 c28: 1119 pi_p_a8_a1 + 1119 pi_p_a8_a9 + 1119 pi_d_a8_a0_proc_0
      + 1119 pi_d_a8_a1_proc_0 + 1119 pi_d_a8_a2_proc_0 + 1119 pi_d_a8_a3_proc_0
      + 1119 pi_d_a8_a4_proc_0 + 1119 pi_d_a8_a6_proc_0 + 1119 pi_d_a8_a7_proc_0
      + 1119 pi_d_a8_a9_proc_0 + pi_y1_a8 + pi_y2_a8_proc_0 >= 0
 c29: 535 pi_p_a8_a1 + 535 pi_p_a8_a9 + 535 pi_d_a8_a1_proc_1
      + 535 pi_d_a8_a2_proc_1 + 535 pi_d_a8_a5_proc_1 + 535 pi_d_a8_a7_proc_1
      + pi_y1_a8 + pi_y2_a8_proc_1 >= 0
 c30: pi_p_a9_a6 - pi_p_a7_a9 - pi_p_a8_a9 - pi_d_a0_a9_proc_2
      - pi_d_a0_a9_proc_0 + pi_d_a9_a0_proc_2 + pi_d_a9_a0_proc_0
      - pi_d_a1_a9_proc_2 - pi_d_a1_a9_proc_0 + pi_d_a9_a1_proc_2
      + pi_d_a9_a1_proc_0 - pi_d_a2_a9_proc_2 - pi_d_a2_a9_proc_0
      + pi_d_a9_a2_proc_2 + pi_d_a9_a2_proc_0 - pi_d_a3_a9_proc_2
      - pi_d_a3_a9_proc_0 + pi_d_a9_a3_proc_2 + pi_d_a9_a3_proc_0
      - pi_d_a4_a9_proc_0 + pi_d_a9_a4_proc_0 - pi_d_a5_a9_proc_2
      + pi_d_a9_a5_proc_2 - pi_d_a6_a9_proc_0 + pi_d_a9_a6_proc_0
      - pi_d_a7_a9_proc_2 - pi_d_a7_a9_proc_0 + pi_d_a9_a7_proc_2
      + pi_d_a9_a7_proc_0 - pi_d_a8_a9_proc_0 + pi_d_a9_a8_proc_0 >= 0
 c31: 745 pi_p_a9_a6 + 745 pi_d_a9_a0_proc_0 + 745 pi_d_a9_a1_proc_0
      + 745 pi_d_a9_a2_proc_0 + 745 pi_d_a9_a3_proc_0 + 745 pi_d_a9_a4_proc_0
      + 745 pi_d_a9_a6_proc_0 + 745 pi_d_a9_a7_proc_0 + 745 pi_d_a9_a8_proc_0
      + pi_y1_a9 + pi_y2_a9_proc_0 >= 0
 c32: 728 pi_p_a9_a6 + 728 pi_d_a9_a0_proc_2 + 728 pi_d_a9_a1_proc_2
      + 728 pi_d_a9_a2_proc_2 + 728 pi_d_a9_a3_proc_2 + 728 pi_d_a9_a5_proc_2
      + 728 pi_d_a9_a7_proc_2 + pi_y1_a9 + pi_y2_a9_proc_2 >= 0

Bounds
       pi_y1_a0 Free
       pi_y1_a1 Free
       pi_y1_a2 Free
       pi_y1_a3 Free
       pi_y1_a4 Free
       pi_y1_a5 Free
       pi_y1_a6 Free
       pi_y1_a7 Free
       pi_y1_a8 Free
       pi_y1_a9 Free
End
