benchmark/results/graph__10-1000-0.10-03_4/graph__10-1000-0.10-03_4_Quinton_Benders_sub.txt
solution for: Quinton Benders_dual_sub
objective: 0.00028169
status: OPTIMAL_SOLUTION(2)
pi_p_a6_a5=0.000
pi_p_a8_a9=0.000
pi_d_a5_a8_proc_1=0.000
pi_d_a9_a6_proc_0=0.000
pi_y1_a5=-0.315
pi_y1_a6=-0.325
pi_y1_a8=-0.151
pi_y1_a9=-0.210
pi_y2_a5_proc_2=0.315
pi_y2_a9_proc_2=0.210
